NAME : problems/40-tsp/instance-48.tsp
COMMENT : No Comment
TYPE : TSP
DIMENSION: 40
EDGE_WEIGHT_TYPE : EUC_2D
NODE_COORD_SECTION
1 2555 7003 
2 8763 5019 
3 1194 4390 
4 6916 5156 
5 8793 1702 
6 8384 6343 
7 4409 2862 
8 4067 8797 
9 4622 2659 
10 728 4842 
11 1424 8081 
12 8874 6879 
13 8825 8287 
14 6892 6560 
15 9909 9687 
16 5100 3646 
17 6210 5946 
18 4097 9791 
19 7135 4513 
20 2347 9195 
21 2481 7869 
22 7102 7561 
23 54 1402 
24 432 2210 
25 1278 4925 
26 9020 4821 
27 7204 3981 
28 6437 7124 
29 9534 1343 
30 5519 519 
31 18 5609 
32 5940 4361 
33 3631 7610 
34 2124 5486 
35 9386 5651 
36 7117 4710 
37 7927 1492 
38 6212 5517 
39 2850 7299 
40 414 1496 
EOF
